% Solution

% grid = 
% [| 4, 7, 8, 6, 9, 3, 5, 2, 1
%  | 1, 3, 9, 5, 2, 8, 4, 6, 7
%  | 6, 5, 2, 4, 7, 1, 9, 8, 3
%  | 5, 2, 7, 8, 4, 9, 3, 1, 6
%  | 3, 4, 1, 7, 6, 2, 8, 9, 5
%  | 8, 9, 6, 1, 3, 5, 2, 7, 4
%  | 2, 8, 4, 3, 1, 6, 7, 5, 9
%  | 9, 1, 3, 2, 5, 7, 6, 4, 8
%  | 7, 6, 5, 9, 8, 4, 1, 3, 2
%  |];

%%%%%%%%%% Sudoku parameters %%%%%%%%%%
size = 9;

clue = [| 0, 0, 0,   0, 0, 0,   0, 0, 0
        | 0, 0, 0,   0, 0, 0,   0, 0, 0
        | 0, 0, 0,   0, 0, 0,   0, 0, 0

        | 0, 0, 0,   0, 0, 0,   0, 0, 0
        | 0, 0, 0,   0, 0, 0,   0, 0, 0
        | 0, 0, 0,   0, 0, 0,   0, 0, 0

        | 0, 0, 0,   0, 0, 0,   0, 0, 0
        | 0, 0, 0,   0, 0, 0,   0, 0, 0
        | 0, 0, 0,   0, 0, 0,   0, 0, 0
        |];

%%%%%%%%%% Killer parameters %%%%%%%%%%

cage_count = 15;
cage_max_length = 9;

cage_totals = [11, 11, 11, 11, 11, 11, 11, 11, 11, 11, 11, 11, 11, <>, <>];

cage_cells = [| (r: 1, c: 1), (r: 1, c: 2), (r:<>, c:<>), (r:<>, c:<>), (r:<>, c:<>), (r:<>, c:<>), (r:<>, c:<>), (r:<>, c:<>), (r:<>, c:<>)
              | (r: 1, c: 4), (r: 2, c: 4), (r:<>, c:<>), (r:<>, c:<>), (r:<>, c:<>), (r:<>, c:<>), (r:<>, c:<>), (r:<>, c:<>), (r:<>, c:<>)
              | (r: 1, c: 5), (r: 2, c: 5), (r:<>, c:<>), (r:<>, c:<>), (r:<>, c:<>), (r:<>, c:<>), (r:<>, c:<>), (r:<>, c:<>), (r:<>, c:<>)
              | (r: 1, c: 6), (r: 2, c: 6), (r:<>, c:<>), (r:<>, c:<>), (r:<>, c:<>), (r:<>, c:<>), (r:<>, c:<>), (r:<>, c:<>), (r:<>, c:<>)
              | (r: 3, c: 4), (r: 3, c: 5), (r:<>, c:<>), (r:<>, c:<>), (r:<>, c:<>), (r:<>, c:<>), (r:<>, c:<>), (r:<>, c:<>), (r:<>, c:<>)
              | (r: 3, c: 8), (r: 3, c: 9), (r:<>, c:<>), (r:<>, c:<>), (r:<>, c:<>), (r:<>, c:<>), (r:<>, c:<>), (r:<>, c:<>), (r:<>, c:<>)
              | (r: 4, c: 1), (r: 4, c: 2), (r: 5, c: 2), (r:<>, c:<>), (r:<>, c:<>), (r:<>, c:<>), (r:<>, c:<>), (r:<>, c:<>), (r:<>, c:<>)
              | (r: 5, c: 6), (r: 6, c: 4), (r: 6, c: 5), (r: 6, c: 6), (r:<>, c:<>), (r:<>, c:<>), (r:<>, c:<>), (r:<>, c:<>), (r:<>, c:<>)
              | (r: 7, c: 1), (r: 8, c: 1), (r:<>, c:<>), (r:<>, c:<>), (r:<>, c:<>), (r:<>, c:<>), (r:<>, c:<>), (r:<>, c:<>), (r:<>, c:<>)
              | (r: 8, c: 4), (r: 9, c: 4), (r:<>, c:<>), (r:<>, c:<>), (r:<>, c:<>), (r:<>, c:<>), (r:<>, c:<>), (r:<>, c:<>), (r:<>, c:<>)
              | (r: 8, c: 6), (r: 9, c: 6), (r:<>, c:<>), (r:<>, c:<>), (r:<>, c:<>), (r:<>, c:<>), (r:<>, c:<>), (r:<>, c:<>), (r:<>, c:<>)
              | (r: 8, c: 7), (r: 8, c: 8), (r: 9, c: 7), (r:<>, c:<>), (r:<>, c:<>), (r:<>, c:<>), (r:<>, c:<>), (r:<>, c:<>), (r:<>, c:<>)
              | (r: 9, c: 2), (r: 9, c: 3), (r:<>, c:<>), (r:<>, c:<>), (r:<>, c:<>), (r:<>, c:<>), (r:<>, c:<>), (r:<>, c:<>), (r:<>, c:<>)
              | (r: 2, c: 3), (r: 3, c: 2), (r: 3, c: 3), (r: 4, c: 3), (r: 5, c: 3), (r: 6, c: 3), (r: 7, c: 2), (r: 7, c: 3), (r: 7, c: 4)
              | (r: 2, c: 7), (r: 3, c: 6), (r: 3, c: 7), (r: 4, c: 7), (r: 5, c: 7), (r: 6, c: 7), (r: 7, c: 6), (r: 7, c: 7), (r: 7, c: 8)
              |];

%%%%%%%%%% Thermometer parameters %%%%%%%%%%

thermo_count = 0;
thermo_max_length = 0;

thermo_cells = [];

%%%%%%%% German Whispers parameters %%%%%%%%%

GW_count = 3;
GW_max_length = 6;

GW_cells = [| 
      (r: 2, c: 3), (r: 3, c: 3), (r: 4, c: 3), (r: 5, c: 3), (r: 6, c: 3), (r:<>, c:<>)
    | (r: 2, c: 7), (r: 3, c: 7), (r: 4, c: 7), (r: 5, c: 7), (r: 6, c: 7), (r: 7, c: 7)
    | (r: 6, c: 9), (r: 7, c: 9), (r:<>, c:<>), (r:<>, c:<>), (r:<>, c:<>), (r:<>, c:<>)
    |];

%%%%%%%% Partial Kropki parameters %%%%%%%%%

krp_count_white = 0;
krp_cells_white = [];

krp_count_black = 0;
krp_cells_black = [];

%%%%%%%% Full Kropki constraints %%%%%%%%%

full_kropki = false;
